(set-option :produce-models true)
(set-logic QF_UF)
(declare-fun p24() Bool)
(declare-fun p19() Bool)
(declare-fun p18() Bool)
(declare-fun p16() Bool)
(declare-fun p9() Bool)
(declare-fun p23() Bool)
(declare-fun p25() Bool)
(declare-fun p28() Bool)
(declare-fun p26() Bool)
(declare-fun p10() Bool)
(declare-fun p14() Bool)
(declare-fun p13() Bool)
(declare-fun p12() Bool)
(declare-fun p2() Bool)
(declare-fun p15() Bool)
(declare-fun p5() Bool)
(declare-fun p29() Bool)
(declare-fun p27() Bool)
(declare-fun p6() Bool)
(declare-fun p17() Bool)
(declare-fun p1() Bool)
(declare-fun p20() Bool)
(declare-fun p11() Bool)
(declare-fun p7() Bool)
(declare-fun p21() Bool)
(declare-fun p3() Bool)
(declare-fun p0() Bool)
(declare-fun p4() Bool)
(declare-fun p8() Bool)
(declare-fun p22() Bool)
(assert
(and (or p24 p19 (not p18)) (or (not p16) p9 p23) (or p25 (not p19) p28) (or (not p26) p24 (not p10)) (or (not p18) p14 p13) (or (not p12) (not p9) p14) (or (not p2) (not p15) (not p5)) (or (not p29) (not p14) p27) (or (not p26) p6 (not p17)) (or p1 (not p20) p11) (or (not p7) (not p21) p3) (or (not p27) p13 (not p0)) (or (not p23) (not p15) (not p2)) (or p0 p14 (not p16)) (or p11 p25 (not p18)) (or (not p10) (not p19) p25) (or (not p16) (not p4) p26) (or p24 (not p1) (not p0)) (or p4 p29 (not p14)) (or p28 p19 (not p28)) (or (not p29) (not p16) p28) (or (not p9) (not p25) p28) (or (not p2) p29 (not p21)) (or (not p24) p4 (not p12)) (or (not p10) (not p11) (not p21)) (or (not p23) p15 p28) (or (not p2) (not p27) (not p2)) (or p27 p19 (not p26)) (or p27 p25 p12) (or (not p12) (not p24) (not p11)) (or (not p9) p16 (not p26)) (or p3 p10 p28) (or (not p5) p25 p5) (or p24 (not p10) (not p6)) (or (not p27) (not p2) p25) (or (not p18) p23 p3) (or (not p0) (not p9) p23) (or p29 (not p12) (not p9)) (or (not p28) (not p16) p0) (or (not p28) (not p11) (not p2)) (or p10 p26 (not p23)) (or (not p16) (not p24) p12) (or (not p25) p16 p8) (or p20 p4 (not p5)) (or (not p26) p10 p5) (or p23 p6 (not p24)) (or p4 p6 (not p12)) (or (not p24) p19 p22) (or (not p17) p3 p22) (or (not p23) (not p16) (not p28)) (or (not p18) p10 (not p7)) (or (not p16) (not p14) p20) (or (not p28) p13 p27) (or (not p8) (not p17) (not p22)) (or p20 p7 p10) (or (not p27) p20 p27) (or (not p28) p20 p17) (or p7 p10 p16) (or (not p2) p27 p1) (or (not p19) p22 (not p26)) (or p8 p0 p21) (or (not p8) p13 (not p3)) (or (not p6) p6 (not p12)) (or p9 (not p2) (not p19)) (or p10 p23 p28) (or (not p10) p12 (not p24)) (or p26 (not p19) p4) (or p8 (not p2) p4) (or (not p20) (not p18) (not p13)) (or (not p18) (not p3) (not p22)) (or p14 (not p22) p0) (or p5 p4 p13) (or (not p14) p29 (not p27)) (or p6 (not p27) p25) (or (not p25) (not p4) p5) (or p10 (not p5) p28) (or (not p13) p21 (not p29)) (or p4 p22 (not p12)) (or (not p7) (not p17) (not p4)) (or (not p19) (not p27) (not p21)) (or (not p17) p10 (not p24)) (or p0 (not p10) p14) (or (not p18) p13 (not p13)) (or p5 (not p9) p9) (or (not p8) p25 (not p0)) (or p23 p18 (not p16)) (or (not p8) p3 (not p4)) (or (not p14) (not p2) (not p12)) (or p2 p5 (not p12)) (or p11 (not p28) p10) (or p0 p9 (not p12)) (or p1 (not p5) p24) (or p16 (not p12) p17) (or p11 p16 (not p14)) (or (not p27) p0 (not p12)) (or (not p11) p19 p3) (or p29 p18 (not p25)) (or p13 p20 p17) (or (not p23) (not p7) p10) (or p9 (not p6) (not p9)) (or (not p2) (not p26) (not p22)) (or (not p15) p4 (not p6)) (or (not p11) p21 (not p27)) (or (not p9) p23 (not p19)) (or p12 (not p0) p24) (or (not p8) (not p22) p19) (or (not p2) (not p24) (not p17)) (or (not p11) (not p9) p12) (or p6 (not p17) (not p18)) (or (not p21) p25 (not p6)) (or (not p21) p27 (not p22)) (or (not p6) (not p25) (not p8)) (or (not p25) (not p13) p12) (or (not p8) (not p10) p8) (or (not p10) (not p24) p24) (or p29 p5 p15) (or (not p0) p17 p9) (or (not p18) p1 (not p28)) (or (not p9) (not p29) (not p1)) (or (not p12) p22 (not p15)) (or (not p7) (not p5) (not p10)) (or p22 (not p16) (not p4)) (or (not p22) p29 (not p0)) (or p2 p12 p21) (or p3 p13 (not p14)) (or (not p3) p27 (not p19)) (or p20 (not p9) (not p10)) (or (not p11) p9 p4))
)
(check-sat)
(get-model)
